decision_x1=[0,4];
decision_x2=[0,4];
decision_x3=[0,4];
decision_x4=[0,4];
decision_x5=[0,4];
random_y1=[0,4];
constraint_x3_x1=[
0,1,3.5|
0,2,0.81|
0,3,3.8|
0,4,0.94|
1,0,2.4|
1,2,2.3|
1,3,3.9|
1,4,1.3|
2,0,8.7|
2,1,2.2|
2,3,7.6|
2,4,7|
3,0,7.8|
3,1,9|
3,2,6.7|
3,4,1.4|
4,0,6.3|
4,1,6.3|
4,2,8.7|
4,3,8.3|
];
constraint_x3_x2=[
0,1,2.8|
0,2,5.7|
0,3,0.11|
0,4,7.7|
1,0,1.7|
1,2,0.59|
1,3,0.88|
1,4,2.3|
2,0,7.3|
2,1,6.4|
2,3,4.8|
2,4,9.9|
3,0,8.8|
3,1,0.13|
3,2,1.8|
3,4,7.4|
4,0,1.2|
4,1,1|
4,2,4.2|
4,3,4.5|
];
constraint_x4_x1=[
0,1,8|
0,2,3.9|
0,3,2.3|
0,4,5.6|
1,0,8.3|
1,2,7.8|
1,3,0.15|
1,4,9.4|
2,0,9.5|
2,1,2.2|
2,3,1.2|
2,4,1.9|
3,0,3.1|
3,1,2.1|
3,2,6.3|
3,4,9.6|
4,0,5.7|
4,1,0.76|
4,2,2|
4,3,6.9|
];
constraint_x5_x2=[
0,1,8.9|
0,2,9.4|
0,3,1.2|
0,4,7.5|
1,0,5|
1,2,6.4|
1,3,3.5|
1,4,8.3|
2,0,1.1|
2,1,7.9|
2,3,6.7|
2,4,9.9|
3,0,6.1|
3,1,0.36|
3,2,7.5|
3,4,8.2|
4,0,6|
4,1,4|
4,2,3.3|
4,3,5.9|
];
constraint_x5_x4=[
0,1,2|
0,2,6.7|
0,3,8.4|
0,4,7.1|
1,0,2.6|
1,2,0.37|
1,3,4|
1,4,3.8|
2,0,4.1|
2,1,1.3|
2,3,8.5|
2,4,1.2|
3,0,3.8|
3,1,0.29|
3,2,2|
3,4,9.7|
4,0,3.5|
4,1,0.9|
4,2,9.3|
4,3,0.97|
];
constraint_x1_y1=[
0,0,5.3|
0,1,0.14|
0,2,4.3|
0,3,0.15|
0,4,4.6|
1,0,8.5|
1,1,5.7|
1,2,8.2|
1,3,0.68|
1,4,9.6|
2,0,2.9|
2,1,8.7|
2,2,2.5|
2,3,4.9|
2,4,7.1|
3,0,6|
3,1,7.8|
3,2,3.8|
3,3,2.6|
3,4,3.7|
4,0,7.8|
4,1,0.54|
4,2,2.6|
4,3,1.9|
4,4,1.3|
];
initial_distribution_y1=[0.15,0.21,0.23,0.23,0.18];
transition_y1=[
0.15,0.27,0.26,0.27,0.039|
0.32,0.19,0.14,0.12,0.23|
0.17,0.24,0.16,0.2,0.24|
0.17,0.3,0.26,0.042,0.22|
0.43,0.081,0.2,0.037,0.25|
];
